
  32    1
  10

   0   0   4 2 4 5 6 
   8   1   3 9 8 3 
   8   1   3 13 12 7 
   8   3   3 12 8 7 
   6   1   4 13 12 11 10 
   9   3   3 13 12 10 
   5   2   2 11 10 
  10   2   2 11 10 
   6   2   2 11 10 
   6   3   3 16 15 14 
   1   2   3 18 16 15 
   8   6   2 17 14 
   2   2   4 22 19 18 17 
   1   2   4 26 22 19 18 
   5   1   4 25 20 19 17 
   4   1   5 28 26 25 22 21 
   3   1   3 28 26 21 
  10   1   3 28 25 21 
   2   4   2 28 21 
   5   1   3 31 28 23 
   4   1   2 30 23 
  10   2   2 31 23 
  10   1   1 24 
   6   3   1 27 
   5   1   1 27 
  10   2   1 27 
   4   1   1 29 
   3   1   1 29 
   9   1   1 32
   8   5   1 32
   6   3   1 32
   0   0   0 
